c array.sh: path:     /data/qbf/qbf20/PCNF/incrementer-enc02-uniform-depth-63.qdimacs
c array.sh: name:     incrementer-enc02-uniform-depth-63
c array.sh: task:     70
c array.sh: host:     c3n24
c array.sh: uname:    Linux c3n24 4.15.0-135-generic #139-Ubuntu SMP Mon Jan 18 17:38:24 UTC 2021 x86_64 x86_64 x86_64 GNU/Linux
c array.sh: start:    Tue Feb 16 22:45:02 CET 2021
c array.sh: noturbo:  1
c array.sh: governor: 32 performance
c array.sh: tmp:      1%
c array.sh: unzipped: /tmp/local-unzipped-18834727-70-incrementer-enc02-uniform-depth-63.cnf
using tmp directory:
  /tmp
running QBF solver...

/home/seidl/cert_tests/bin/ferp-models/ijtihad/ijtihad --dependencies=0 --wit_per_call=-1 --cex_per_call=-1 --log_phi=/tmp/ferpcert2958expanded.cnf /tmp/local-unzipped-18834727-70-incrementer-enc02-uniform-depth-63.cnf
c Options after parsing: 
c cex_per_call = 18446744073709551615
c wit_per_call = 18446744073709551615
c warmup = 1
c warmup_randoms = 0
c trimming_phi = 0
c trimming_ksi = 2
c trimming_interval = 200
c memory_limit = 3000000
c MySolverv970-glucose
-1 -2 -3 -4 -5 -6 -7 -8 -9 -10 -11 -12 -13 -14 -15 -16 -17 -18 -19 -20 -21 -22 -23 -24 -25 -26 -27 -28 -29 -30 -31 -32 -33 -34 -35 -36 -37 -38 -39 -40 -41 -42 -43 -44 -45 -46 -47 -48 -49 -50 -51 -52 -53 -54 -55 -56 -57 -58 -59 -60 -61 -62 -63 -64 -65 -66 -67 -68 -69 -70 -71 -72 -73 -74 -75 -76 -77 -78 -79 -80 -81 -82 -83 -84 -85 -86 -87 -88 -89 -90 -91 -92 -93 -94 -95 -96 -97 -98 -99 -100 -101 -102 -103 -104 -105 -106 -107 -108 -109 -110 -111 -112 -113 -114 -115 -116 -117 -118 -119 -120 -121 -122 -123 -124 -125 -126 -127 -128 
1 2 3 4 5 6 7 8 9 10 11 12 13 14 15 16 17 18 19 20 21 22 23 24 25 26 27 28 29 30 31 32 33 34 35 36 37 38 39 40 41 42 43 44 45 46 47 48 49 50 51 52 53 54 55 56 57 58 59 60 61 62 63 64 65 66 67 68 69 70 71 72 73 74 75 76 77 78 79 80 81 82 83 84 85 86 87 88 89 90 91 92 93 94 95 96 97 98 99 100 101 102 103 104 105 106 107 108 109 110 111 112 113 114 115 116 117 118 119 120 121 122 123 124 125 126 127 128 
c Number of calls is: 0
c Layers in PHI: 0
c Layers in KSI: 0
c Running Ijtihad loop
c sat_solver_phi calld 0 times, running for 1.66161 seconds.
c number of layers in PHI is 2
c sat_solver_ksi was running for 0 seconds.
c number of layers in KSI is 0
c mysolver was running for 1.90101 seconds.
s cnf 0
solving done with exit code 20

QBF solver OK

running SAT Solver...

/tmp/ferpcert2958expanded.cnf
s UNSATISFIABLE

PROOF GENERATION OK

checking unsat proof

resolved 1 root and 1 empty clause
trace-size2: 59684426

TRACE CHECK OK

running toferp...

ferp-size: 51394127
TOFERP OK

checking FERP PROOF...

c Warning: Variable count mismatch 38208 38209
FERP CHECK OK

extracting AIG ...

aig-size: 223131
aig-header: aag 38208 37765 0 128 128
FERP CERT OK

merging  AIG into QBF ...

CERTCHECK OK

merged-cnf-header: p cnf 304547 684773
merged-cnf-size: 12759009
running SAT solver...

c ---- [ banner ] ------------------------------------------------------------
c
c KISSAT SAT Solver
c Copyright (c) 2019-2020 Armin Biere JKU Linz
c 
c Version 1.0.3 59813addcacc4d6fb880ebdd63685600475aa940
c gcc (Ubuntu 7.5.0-3ubuntu1~18.04) 7.5.0 -W -Wall -O3 -DNEMBEDDED -DNDEBUG -DNMETRICS -DNSTATISTICS
c Sun Feb 14 23:58:54 CET 2021 Linux cluster3 4.15.0-135-generic x86_64
c
c ---- [ parsing ] -----------------------------------------------------------
c
c opened and reading DIMACS file:
c 
c   /tmp/ferpcert_merged_cnf2958.cnf
c 
c parsed 'p cnf 304547 684773' header
c closing input after reading 12759009 bytes (12 MB)
c finished parsing after 0.22 seconds
c
c ---- [ solving ] -----------------------------------------------------------
c
c  seconds reductions redundant irredundant
c         MB   restarts    trail       variables
c          level  conflicts   glue          remaining
c
c *  0.22 40 0  0  0   0   0 0% 0 684771 65618 22%
c {  0.22 40 0  0  0   0   0 0% 0 684771 65618 22%
c i  0.22 40 2  0  0   1   0 0% 0 684771 65607 22%
c i  0.22 40 13  0  1   4   2 2% 1 684771 65601 22%
c -  0.36 23 637  1  1 301 299 37% 2 181634 65601 22%
c i  0.37 14 813  1  1 368 354 48% 2 181634 65560 22%
c i  0.38 14 834  1  8 605 588 50% 2 181634 65549 22%
c i  0.38 14 832  1  9 606 588 50% 2 181634 65543 22%
c i  0.38 14 807  1 14 622 603 49% 2 181634 65518 22%
c i  0.38 14 805  1 14 623 603 48% 2 181634 65517 22%
c i  0.38 14 804  1 14 624 603 48% 2 181634 65488 22%
c i  0.40 14 726  1 29 678 656 45% 2 181634 65482 22%
c i  0.40 14 725  1 30 679 656 44% 2 181634 65464 21%
c i  0.40 14 718  1 34 684 660 44% 2 181634 65446 21%
c i  0.40 14 716  1 34 685 660 44% 2 181634 65428 21%
c i  0.40 14 715  1 34 686 660 44% 2 181634 65410 21%
c i  0.40 14 714  1 34 687 660 44% 2 181634 65392 21%
c i  0.40 14 712  1 34 688 660 44% 2 181634 65380 21%
c i  0.40 14 711  1 34 689 660 44% 2 181634 65356 21%
c i  0.40 14 710  1 34 690 660 44% 2 181634 65338 21%
c
c  seconds   reductions redundant irredundant
c         MB     restarts     trail       variables
c           level   conflicts    glue          remaining
c
c i  0.40 14 691  1 34 704 673 43% 2 181634 64674 21%
c i  0.40 14 690  1 34 705 673 43% 2 181634 64665 21%
c i  0.40 14 681  1 36 712 679 42% 2 181634 64647 21%
c i  0.40 14 679  1 36 713 679 42% 2 181634 64629 21%
c i  0.40 14 670  1 36 720 685 41% 2 181634 64620 21%
c i  0.42 14 581  1 87 795 759 37% 2 181634 64573 21%
c i  0.42 14 561  1 96 814 775 36% 2 181634 64482 21%
c i  0.42 14 558  1 98 817 777 36% 2 181634 64475 21%
c i  0.42 14 535  1 106 839 798 35% 2 181634 64458 21%
c i  0.42 14 529  1 109 845 803 34% 2 181634 64429 21%
c i  0.43 14 490  1 122 886 842 32% 2 181634 64427 21%
c i  0.43 14 476  1 129 901 856 31% 2 181634 64409 21%
c -  0.44 14 476  2 129 901 759 31% 2 177586 64409 21%
c i  0.45 14 428  2 151 959 816 29% 2 177586 64391 21%
c i  0.45 14 425  2 152 962 818 29% 2 177586 64382 21%
c }  0.45 14 395  2 168 1001 857 27% 2 177586 64382 21%
c [  0.45 14 0  2 168 1001 857 0% 0 177586 64382 21%
c O  0.47 14 25  2 168 1002 856 7% 3 177343 64382 21%
c i  0.47 14 29  2 168 1012 864 6% 3 177343 64379 21%
c i  0.47 14 41  2 168 1019 870 16% 2 177343 64373 21%
c
c  seconds  reductions   redundant irredundant
c         MB    restarts       trail       variables
c          level    conflicts     glue          remaining
c
c i  0.47 14 27  2 168 1038 888 23% 5 177343 64367 21%
c i  0.47 14 27  2 168 1039 888 22% 5 177343 64361 21%
c i  0.47 14 27  2 168 1040 888 22% 4 177343 64355 21%
c i  0.47 14 27  2 168 1041 888 21% 4 177343 64349 21%
c i  0.47 14 27  2 168 1042 888 21% 4 177343 64343 21%
c i  0.47 14 27  2 168 1043 888 20% 4 177343 64337 21%
c i  0.47 14 28  2 168 1044 888 20% 4 177343 64331 21%
c i  0.48 14 28  2 168 1045 888 19% 4 177343 64325 21%
c i  0.48 14 28  2 168 1046 888 19% 4 177343 64319 21%
c i  0.51 15 95  2 168 1402 1215 26% 4 177343 64304 21%
c i  0.52 15 218  2 168 1534 1340 41% 3 177343 64295 21%
c i  0.52 15 218  2 168 1535 1340 41% 3 177343 64281 21%
c -  0.54 15 194  3 168 1801 1506 45% 3 176609 64144 21%
c i  0.54 15 165  3 168 1903 1604 38% 3 176609 64110 21%
c ]  0.61 15 129  3 169 2143 1819 40% 3 176609 64110 21%
c {  0.61 15 395  3 169 2143 1819 27% 2 176609 64110 21%
c i  0.61 15 390  3 172 2151 1826 27% 2 176609 64104 21%
c i  0.61 15 389  3 173 2152 1826 27% 2 176609 64098 21%
c i  0.61 15 388  3 174 2154 1827 27% 2 176609 64092 21%
c i  0.61 15 386  3 174 2156 1828 27% 2 176609 64083 21%
c
c  seconds   reductions   redundant  irredundant
c         MB     restarts        trail       variables
c           level    conflicts      glue          remaining
c
c i  0.61 15 373  3 183 2183 1854 26% 2 176609 64059 21%
c i  0.62 15 367  3 186 2202 1872 26% 2 176609 64053 21%
c i  0.62 15 366  3 186 2203 1872 26% 2 176609 64044 21%
c i  0.69 15 313  3 251 2395 2058 25% 2 176609 64043 21%
c d  0.73 16 284  3 297 2500 2146 24% 2 157748 54652 18%
c d  0.74 16 284  3 297 2500 2144 24% 2 155228 53396 18%
c 3  0.76 16 284  3 297 2500 3892 24% 2 155228 53396 18%
c t  0.79 16 284  3 297 2500 3889 24% 2 149505 53186 17%
c f  1.04 19 284  3 297 2500 121262 24% 2 149411 53093 17%
c f  1.05 19 284  3 297 2500 121272 24% 2 149411 53093 17%
c u  1.15 19 284  3 297 2500 121246 24% 2 149411 52969 17%
c v  1.21 19 284  3 297 2500 120976 24% 2 149411 52966 17%
c w  1.30 19 284  3 297 2500 121393 24% 2 149373 52963 17%
c d  1.32 19 284  3 297 2500 117381 24% 2 147106 49934 16%
c d  1.34 19 284  3 297 2500 117379 24% 2 147024 49888 16%
c i  1.34 19 284  3 297 2500 117379 24% 2 147024 49888 16%
c i  1.35 19 279  3 308 2522 117400 24% 2 147024 49881 16%
c i  1.43 19 220  3 422 2795 117663 21% 3 147024 49879 16%
c i  1.43 19 219  3 423 2799 117666 21% 3 147024 49840 16%
c i  1.43 19 219  3 423 2800 117666 21% 3 147024 49831 16%
c
c  seconds   reductions    redundant   irredundant
c         MB     restarts          trail       variables
c           level    conflicts        glue          remaining
c
c i  1.47 19 186  3 493 2997 117853 19% 3 147024 49829 16%
c i  1.47 19 185  3 493 2998 117853 19% 3 147024 49756 16%
c -  1.49 17 185  4 495 3001 6637 19% 3 145037 49756 16%
c I  1.49 17 184  4 496 3005 6641 19% 3 145037 49756 16%
c i  1.50 17 163  4 524 3151 6778 18% 3 145037 49755 16%
c i  1.63 17 124  4 709 3880 7486 17% 3 145037 49748 16%
c i  1.66 17 118  4 728 4077 7673 18% 3 145037 49674 16%
c }  1.67 17 115  4 738 4143 7731 18% 3 145037 49674 16%
c [  1.68 17 129  4 738 4143 7731 40% 3 145037 49674 16%
c i  1.69 17 125  4 738 4207 7792 39% 3 145037 49660 16%
c i  1.69 17 125  4 738 4208 7792 39% 3 145037 49546 16%
c i  1.70 17 122  4 738 4409 7959 42% 3 145037 49535 16%
c -  1.72 17 119  5 738 4501 5004 42% 4 144424 49535 16%
c a  1.83 17 113  5 739 6005 6326 38% 10 144223 49491 16%
c B  1.84 17 113  5 739 6006 6327 38% 10 144223 49491 16%
c i  1.84 17 108  5 739 6107 6420 37% 9 144223 49460 16%
c i  1.84 17 108  5 739 6109 6421 37% 9 144223 49459 16%
c -  1.86 17 101  6 740 6301 4313 35% 9 144111 49459 16%
c d  1.94 18 75  6 740 7502 5398 26% 7 143933 49334 16%
c d  1.95 18 75  6 740 7502 5394 26% 7 143550 49121 16%
c
c  seconds  reductions   redundant  irredundant
c         MB    restarts        trail       variables
c          level    conflicts      glue          remaining
c
c 3  1.97 15 75  6 740 7502 7084 26% 7 143550 49121 16%
c t  2.00 15 75  6 740 7502 6910 26% 7 137506 49117 16%
c f  2.21 16 75  6 740 7502 87274 26% 7 137506 48075 16%
c u  2.36 17 75  6 740 7502 86706 26% 7 137506 47807 16%
c v  2.40 17 75  6 740 7502 89049 26% 7 137506 47753 16%
c w  2.50 17 75  6 740 7502 90616 26% 7 136976 47729 16%
c d  2.52 17 75  6 740 7502 87286 26% 7 134035 44967 15%
c d  2.53 17 75  6 740 7502 87248 26% 7 133933 44917 15%
c i  2.53 17 75  6 740 7502 87248 26% 7 133933 44917 15%
c i  2.54 17 74  6 740 7584 87318 25% 7 133933 44915 15%
c -  2.60 17 67  7 741 8401 4937 23% 7 130102 44915 15%
c ]  2.67 17 59  7 742 9316 5779 19% 8 130102 44915 15%
c {  2.67 17 115  7 742 9316 5779 18% 3 130102 44915 15%
c i  2.68 17 113  7 757 9357 5817 18% 3 130102 44911 15%
c i  2.68 17 113  7 757 9358 5817 18% 3 130102 44910 15%
c i  2.75 17 95  7 941 9850 6278 15% 4 130102 44893 15%
c i  2.75 17 93  7 951 9881 6304 15% 4 130102 44861 15%
c i  2.77 17 89  7 995 9996 6415 15% 4 130102 44859 15%
c a  2.79 17 89  7 998 10007 6018 15% 4 128088 44228 15%
c W  2.96 19 89  7 998 10008 6019 15% 4 128088 44228 15%
c
c  seconds  reductions    redundant  irredundant
c         MB    restarts         trail       variables
c          level     conflicts      glue          remaining
c
c i  2.96 19 89  7 998 10021 6031 14% 4 128088 44204 15%
c i  2.97 19 84  7 998 10148 6145 14% 4 128088 44106 14%
c i  2.97 19 84  7 998 10153 6149 14% 4 128088 43530 14%
c i  2.97 19 84  7 998 10154 6149 14% 4 128088 43520 14%
c }  2.97 19 84  7 998 10156 6149 14% 4 128088 43386 14%
c 0  2.97 19 84  7 998 10156 6149 14% 4 128088 43386 14%
c
c ---- [ result ] ------------------------------------------------------------
c
s UNSATISFIABLE
c
c ---- [ profiling ] ---------------------------------------------------------
c
c           1.46   49.00 %  simplify
c           1.30   43.61 %  search
c           1.24   41.76 %  probe
c           0.79   26.50 %  focused
c           0.54   18.11 %  vivify
c           0.51   17.10 %  stable
c           0.47   15.94 %  failed
c           0.22    7.39 %  parse
c           0.17    5.59 %  walking
c           0.14    4.76 %  substitute
c           0.10    3.26 %  reduce
c           0.06    1.97 %  transitive
c           0.05    1.65 %  autarky
c           0.03    0.98 %  ternary
c =============================================
c           2.97  100.00 %  total
c
c ---- [ statistics ] --------------------------------------------------------
c
c conflicts:                            10156             3416.84 per second
c decisions:                            56012                5.52 per conflict
c propagations:                      23503454          7907407    per second
c reductions:                               7             1451    interval
c rephased:                                 4             2539    interval
c restarts:                               998               10.18 interval
c
c ---- [ resources ] ---------------------------------------------------------
c
c maximum-resident-set-size:         42553344 bytes         41 MB
c process-time:                             2s               2.97 seconds
c
c ---- [ shutting down ] -----------------------------------------------------
c
c exit 20

SAT solver OK

VALID
c array.sh: end:      Tue Feb 16 22:47:35 CET 2021
